NAME : F12.769552.tour
COMMENT : Length = 769552
COMMENT : Found by LKH [Keld Helsgaun] Sun Dec 17 17:13:07 2017
TYPE : TOUR
DIMENSION : 141
TOUR_SECTION
1
18
19
133
126
112
111
123
124
125
129
130
114
140
47
119
72
67
79
64
80
68
134
34
81
69
70
71
137
21
83
20
66
131
120
118
117
132
116
115
141
82
113
127
128
122
121
110
109
108
107
139
92
22
26
27
28
29
31
30
93
91
90
88
87
86
85
84
136
74
75
78
65
77
135
33
35
49
50
63
51
52
53
54
103
57
58
106
94
95
46
40
45
44
41
4
42
43
3
5
6
7
8
9
10
11
13
12
15
89
16
14
17
138
23
25
24
73
48
76
2
62
61
60
32
59
55
56
104
105
102
36
37
100
101
99
98
97
39
38
96
-1
EOF
